
(set-option :produce-models true)
(set-option :inline-size-limit 10000)

(declare-const var0 String)

(push 1)
(assert (str.in.re var0 (re.* (re.range "\x01" "\xff"))))
(assert (str.in.re var0 (re.++ (re.++ re.begin-anchor ((_ re.capture 1) (re.union (re.union ((_ re.capture 2) (re.++ (re.range "1" "9") (re.* (re.range "0" "9")))) ((_ re.capture 3) (re.++ ((_ re.capture 4) (re.union ((_ re.capture 5) (str.to.re "0")) ((_ re.capture 6) (re.++ (re.range "1" "9") (re.* (re.range "0" "9")))))) (re.++ (str.to.re ".") (re.+ (re.range "0" "9")))))) (re.++ (re.* ((_ re.capture 7) (re.++ ((_ re.capture 8) (re.union ((_ re.capture 9) (re.++ (re.range "1" "9") (re.* (re.range "0" "9")))) ((_ re.capture 10) (re.++ ((_ re.capture 11) (re.union ((_ re.capture 12) (str.to.re "0")) ((_ re.capture 13) (re.++ (re.range "1" "9") (re.* (re.range "0" "9")))))) (re.++ (str.to.re ".") (re.+ (re.range "0" "9"))))))) (str.to.re ":")))) ((_ re.capture 14) (re.union ((_ re.capture 15) (re.++ (re.range "1" "9") (re.* (re.range "0" "9")))) ((_ re.capture 16) (re.++ ((_ re.capture 17) (re.union ((_ re.capture 18) (str.to.re "0")) ((_ re.capture 19) (re.++ (re.range "1" "9") (re.* (re.range "0" "9")))))) (re.++ (str.to.re ".") (re.+ (re.range "0" "9"))))))))))) re.end-anchor)))	; match!==null
(assert (not (str.in.re ((_ str.extract 1) var0 (re.++ (re.++ re.begin-anchor ((_ re.capture 1) (re.union (re.union ((_ re.capture 2) (re.++ (re.range "1" "9") (re.* (re.range "0" "9")))) ((_ re.capture 3) (re.++ ((_ re.capture 4) (re.union ((_ re.capture 5) (str.to.re "0")) ((_ re.capture 6) (re.++ (re.range "1" "9") (re.* (re.range "0" "9")))))) (re.++ (str.to.re ".") (re.+ (re.range "0" "9")))))) (re.++ (re.* ((_ re.capture 7) (re.++ ((_ re.capture 8) (re.union ((_ re.capture 9) (re.++ (re.range "1" "9") (re.* (re.range "0" "9")))) ((_ re.capture 10) (re.++ ((_ re.capture 11) (re.union ((_ re.capture 12) (str.to.re "0")) ((_ re.capture 13) (re.++ (re.range "1" "9") (re.* (re.range "0" "9")))))) (re.++ (str.to.re ".") (re.+ (re.range "0" "9"))))))) (str.to.re ":")))) ((_ re.capture 14) (re.union ((_ re.capture 15) (re.++ (re.range "1" "9") (re.* (re.range "0" "9")))) ((_ re.capture 16) (re.++ ((_ re.capture 17) (re.union ((_ re.capture 18) (str.to.re "0")) ((_ re.capture 19) (re.++ (re.range "1" "9") (re.* (re.range "0" "9")))))) (re.++ (str.to.re ".") (re.+ (re.range "0" "9"))))))))))) re.end-anchor)) (str.to.re "\x00"))))
;match[1]!==null
(assert (str.in.re ((_ str.extract 1) var0 (re.++ (re.++ re.begin-anchor ((_ re.capture 1) (re.union (re.union ((_ re.capture 2) (re.++ (re.range "1" "9") (re.* (re.range "0" "9")))) ((_ re.capture 3) (re.++ ((_ re.capture 4) (re.union ((_ re.capture 5) (str.to.re "0")) ((_ re.capture 6) (re.++ (re.range "1" "9") (re.* (re.range "0" "9")))))) (re.++ (str.to.re ".") (re.+ (re.range "0" "9")))))) (re.++ (re.* ((_ re.capture 7) (re.++ ((_ re.capture 8) (re.union ((_ re.capture 9) (re.++ (re.range "1" "9") (re.* (re.range "0" "9")))) ((_ re.capture 10) (re.++ ((_ re.capture 11) (re.union ((_ re.capture 12) (str.to.re "0")) ((_ re.capture 13) (re.++ (re.range "1" "9") (re.* (re.range "0" "9")))))) (re.++ (str.to.re ".") (re.+ (re.range "0" "9"))))))) (str.to.re ":")))) ((_ re.capture 14) (re.union ((_ re.capture 15) (re.++ (re.range "1" "9") (re.* (re.range "0" "9")))) ((_ re.capture 16) (re.++ ((_ re.capture 17) (re.union ((_ re.capture 18) (str.to.re "0")) ((_ re.capture 19) (re.++ (re.range "1" "9") (re.* (re.range "0" "9")))))) (re.++ (str.to.re ".") (re.+ (re.range "0" "9"))))))))))) re.end-anchor)) (re.++ re.all(re.+ (re.range "a" "z")) re.all) ))
;/[a-z]+/.test(match[1]) == true
(check-sat)
(get-model)
(pop 1)
(push 1)
(assert (str.in.re var0 (re.* (re.range "\x01" "\xff"))))
(assert (str.in.re var0 (re.++ (re.++ re.begin-anchor ((_ re.capture 1) (re.union (re.union ((_ re.capture 2) (re.++ (re.range "1" "9") (re.* (re.range "0" "9")))) ((_ re.capture 3) (re.++ ((_ re.capture 4) (re.union ((_ re.capture 5) (str.to.re "0")) ((_ re.capture 6) (re.++ (re.range "1" "9") (re.* (re.range "0" "9")))))) (re.++ (str.to.re ".") (re.+ (re.range "0" "9")))))) (re.++ (re.* ((_ re.capture 7) (re.++ ((_ re.capture 8) (re.union ((_ re.capture 9) (re.++ (re.range "1" "9") (re.* (re.range "0" "9")))) ((_ re.capture 10) (re.++ ((_ re.capture 11) (re.union ((_ re.capture 12) (str.to.re "0")) ((_ re.capture 13) (re.++ (re.range "1" "9") (re.* (re.range "0" "9")))))) (re.++ (str.to.re ".") (re.+ (re.range "0" "9"))))))) (str.to.re ":")))) ((_ re.capture 14) (re.union ((_ re.capture 15) (re.++ (re.range "1" "9") (re.* (re.range "0" "9")))) ((_ re.capture 16) (re.++ ((_ re.capture 17) (re.union ((_ re.capture 18) (str.to.re "0")) ((_ re.capture 19) (re.++ (re.range "1" "9") (re.* (re.range "0" "9")))))) (re.++ (str.to.re ".") (re.+ (re.range "0" "9"))))))))))) re.end-anchor)))	; match!==null
(assert (not (str.in.re ((_ str.extract 1) var0 (re.++ (re.++ re.begin-anchor ((_ re.capture 1) (re.union (re.union ((_ re.capture 2) (re.++ (re.range "1" "9") (re.* (re.range "0" "9")))) ((_ re.capture 3) (re.++ ((_ re.capture 4) (re.union ((_ re.capture 5) (str.to.re "0")) ((_ re.capture 6) (re.++ (re.range "1" "9") (re.* (re.range "0" "9")))))) (re.++ (str.to.re ".") (re.+ (re.range "0" "9")))))) (re.++ (re.* ((_ re.capture 7) (re.++ ((_ re.capture 8) (re.union ((_ re.capture 9) (re.++ (re.range "1" "9") (re.* (re.range "0" "9")))) ((_ re.capture 10) (re.++ ((_ re.capture 11) (re.union ((_ re.capture 12) (str.to.re "0")) ((_ re.capture 13) (re.++ (re.range "1" "9") (re.* (re.range "0" "9")))))) (re.++ (str.to.re ".") (re.+ (re.range "0" "9"))))))) (str.to.re ":")))) ((_ re.capture 14) (re.union ((_ re.capture 15) (re.++ (re.range "1" "9") (re.* (re.range "0" "9")))) ((_ re.capture 16) (re.++ ((_ re.capture 17) (re.union ((_ re.capture 18) (str.to.re "0")) ((_ re.capture 19) (re.++ (re.range "1" "9") (re.* (re.range "0" "9")))))) (re.++ (str.to.re ".") (re.+ (re.range "0" "9"))))))))))) re.end-anchor)) (str.to.re "\x00"))))	
;match[1]!==null
(assert (not (str.in.re ((_ str.extract 1) var0 (re.++ (re.++ re.begin-anchor ((_ re.capture 1) (re.union (re.union ((_ re.capture 2) (re.++ (re.range "1" "9") (re.* (re.range "0" "9")))) ((_ re.capture 3) (re.++ ((_ re.capture 4) (re.union ((_ re.capture 5) (str.to.re "0")) ((_ re.capture 6) (re.++ (re.range "1" "9") (re.* (re.range "0" "9")))))) (re.++ (str.to.re ".") (re.+ (re.range "0" "9")))))) (re.++ (re.* ((_ re.capture 7) (re.++ ((_ re.capture 8) (re.union ((_ re.capture 9) (re.++ (re.range "1" "9") (re.* (re.range "0" "9")))) ((_ re.capture 10) (re.++ ((_ re.capture 11) (re.union ((_ re.capture 12) (str.to.re "0")) ((_ re.capture 13) (re.++ (re.range "1" "9") (re.* (re.range "0" "9")))))) (re.++ (str.to.re ".") (re.+ (re.range "0" "9"))))))) (str.to.re ":")))) ((_ re.capture 14) (re.union ((_ re.capture 15) (re.++ (re.range "1" "9") (re.* (re.range "0" "9")))) ((_ re.capture 16) (re.++ ((_ re.capture 17) (re.union ((_ re.capture 18) (str.to.re "0")) ((_ re.capture 19) (re.++ (re.range "1" "9") (re.* (re.range "0" "9")))))) (re.++ (str.to.re ".") (re.+ (re.range "0" "9"))))))))))) re.end-anchor)) (re.++ re.all(re.+ (re.range "a" "z")) re.all) )))
;/[a-z]+/.test(match[1]) == false	
(check-sat)
(get-model)
(pop 1)
(push 1)
(assert (str.in.re var0 (re.* (re.range "\x01" "\xff"))))
(assert (str.in.re var0 (re.++ (re.++ re.begin-anchor ((_ re.capture 1) (re.union (re.union ((_ re.capture 2) (re.++ (re.range "1" "9") (re.* (re.range "0" "9")))) ((_ re.capture 3) (re.++ ((_ re.capture 4) (re.union ((_ re.capture 5) (str.to.re "0")) ((_ re.capture 6) (re.++ (re.range "1" "9") (re.* (re.range "0" "9")))))) (re.++ (str.to.re ".") (re.+ (re.range "0" "9")))))) (re.++ (re.* ((_ re.capture 7) (re.++ ((_ re.capture 8) (re.union ((_ re.capture 9) (re.++ (re.range "1" "9") (re.* (re.range "0" "9")))) ((_ re.capture 10) (re.++ ((_ re.capture 11) (re.union ((_ re.capture 12) (str.to.re "0")) ((_ re.capture 13) (re.++ (re.range "1" "9") (re.* (re.range "0" "9")))))) (re.++ (str.to.re ".") (re.+ (re.range "0" "9"))))))) (str.to.re ":")))) ((_ re.capture 14) (re.union ((_ re.capture 15) (re.++ (re.range "1" "9") (re.* (re.range "0" "9")))) ((_ re.capture 16) (re.++ ((_ re.capture 17) (re.union ((_ re.capture 18) (str.to.re "0")) ((_ re.capture 19) (re.++ (re.range "1" "9") (re.* (re.range "0" "9")))))) (re.++ (str.to.re ".") (re.+ (re.range "0" "9"))))))))))) re.end-anchor)))	; match!==null
(assert (str.in.re ((_ str.extract 1) var0 (re.++ (re.++ re.begin-anchor ((_ re.capture 1) (re.union (re.union ((_ re.capture 2) (re.++ (re.range "1" "9") (re.* (re.range "0" "9")))) ((_ re.capture 3) (re.++ ((_ re.capture 4) (re.union ((_ re.capture 5) (str.to.re "0")) ((_ re.capture 6) (re.++ (re.range "1" "9") (re.* (re.range "0" "9")))))) (re.++ (str.to.re ".") (re.+ (re.range "0" "9")))))) (re.++ (re.* ((_ re.capture 7) (re.++ ((_ re.capture 8) (re.union ((_ re.capture 9) (re.++ (re.range "1" "9") (re.* (re.range "0" "9")))) ((_ re.capture 10) (re.++ ((_ re.capture 11) (re.union ((_ re.capture 12) (str.to.re "0")) ((_ re.capture 13) (re.++ (re.range "1" "9") (re.* (re.range "0" "9")))))) (re.++ (str.to.re ".") (re.+ (re.range "0" "9"))))))) (str.to.re ":")))) ((_ re.capture 14) (re.union ((_ re.capture 15) (re.++ (re.range "1" "9") (re.* (re.range "0" "9")))) ((_ re.capture 16) (re.++ ((_ re.capture 17) (re.union ((_ re.capture 18) (str.to.re "0")) ((_ re.capture 19) (re.++ (re.range "1" "9") (re.* (re.range "0" "9")))))) (re.++ (str.to.re ".") (re.+ (re.range "0" "9"))))))))))) re.end-anchor)) (str.to.re "\x00")))
;match[1]==null
(check-sat)
(get-model)
(pop 1)
(push 1)
(assert (str.in.re var0 (re.* (re.range "\x01" "\xff"))))
(assert (not (str.in.re var0 (re.++ (re.++ re.begin-anchor ((_ re.capture 1) (re.union (re.union ((_ re.capture 2) (re.++ (re.range "1" "9") (re.* (re.range "0" "9")))) ((_ re.capture 3) (re.++ ((_ re.capture 4) (re.union ((_ re.capture 5) (str.to.re "0")) ((_ re.capture 6) (re.++ (re.range "1" "9") (re.* (re.range "0" "9")))))) (re.++ (str.to.re ".") (re.+ (re.range "0" "9")))))) (re.++ (re.* ((_ re.capture 7) (re.++ ((_ re.capture 8) (re.union ((_ re.capture 9) (re.++ (re.range "1" "9") (re.* (re.range "0" "9")))) ((_ re.capture 10) (re.++ ((_ re.capture 11) (re.union ((_ re.capture 12) (str.to.re "0")) ((_ re.capture 13) (re.++ (re.range "1" "9") (re.* (re.range "0" "9")))))) (re.++ (str.to.re ".") (re.+ (re.range "0" "9"))))))) (str.to.re ":")))) ((_ re.capture 14) (re.union ((_ re.capture 15) (re.++ (re.range "1" "9") (re.* (re.range "0" "9")))) ((_ re.capture 16) (re.++ ((_ re.capture 17) (re.union ((_ re.capture 18) (str.to.re "0")) ((_ re.capture 19) (re.++ (re.range "1" "9") (re.* (re.range "0" "9")))))) (re.++ (str.to.re ".") (re.+ (re.range "0" "9"))))))))))) re.end-anchor))))	; match == null
(check-sat)
(get-model)
(pop 1)
(exit)
